WARNING: for repeatability, setting FPU to use double precision
============================[ Problem Statistics ]=============================
|                                                                             |
|  Number of variables:            50                                         |
|  Number of clauses:             218                                         |
|  Parse time:                   0.00 s                                       |
|                                                                             |
============================[ Search Statistics ]==============================
| Conflicts |          ORIGINAL         |          LEARNT          | Progress |
|           |    Vars  Clauses Literals |    Limit  Clauses Lit/Cl |          |
===============================================================================
===============================================================================
restarts              : 1
conflicts             : 7              (5178 /sec)
decisions             : 24             (0.00 % random) (17751 /sec)
propagations          : 113            (83580 /sec)
conflict literals     : 34             (2.86 % deleted)
Memory used           : 20.00 MB
CPU time              : 0.001352 s

SATISFIABLE
